p cnf 28 258
-1 -13 0
-1 -14 0
-1 -15 0
-1 -16 0
-2 -13 0
-2 -14 0
-2 -15 0
-2 -16 0
-3 -13 0
-3 -14 0
-3 -15 0
-3 -16 0
-4 -13 0
-4 -14 0
-4 -15 0
-4 -16 0
-1 -25 0
-1 -26 0
-1 -27 0
-1 -28 0
-2 -25 0
-2 -26 0
-2 -27 0
-2 -28 0
-3 -25 0
-3 -26 0
-3 -27 0
-3 -28 0
-4 -25 0
-4 -26 0
-4 -27 0
-4 -28 0
-5 -25 0
-5 -26 0
-5 -27 0
-5 -28 0
-6 -25 0
-6 -26 0
-6 -27 0
-6 -28 0
-7 -25 0
-7 -26 0
-7 -27 0
-7 -28 0
-8 -25 0
-8 -26 0
-8 -27 0
-8 -28 0
-9 -13 0
-9 -14 0
-9 -15 0
-9 -16 0
-10 -13 0
-10 -14 0
-10 -15 0
-10 -16 0
-11 -13 0
-11 -14 0
-11 -15 0
-11 -16 0
-12 -13 0
-12 -14 0
-12 -15 0
-12 -16 0
-9 -21 0
-9 -22 0
-9 -23 0
-9 -24 0
-10 -21 0
-10 -22 0
-10 -23 0
-10 -24 0
-11 -21 0
-11 -22 0
-11 -23 0
-11 -24 0
-12 -21 0
-12 -22 0
-12 -23 0
-12 -24 0
-9 -25 0
-9 -26 0
-9 -27 0
-9 -28 0
-10 -25 0
-10 -26 0
-10 -27 0
-10 -28 0
-11 -25 0
-11 -26 0
-11 -27 0
-11 -28 0
-12 -25 0
-12 -26 0
-12 -27 0
-12 -28 0
-17 -25 0
-17 -26 0
-17 -27 0
-17 -28 0
-18 -25 0
-18 -26 0
-18 -27 0
-18 -28 0
-19 -25 0
-19 -26 0
-19 -27 0
-19 -28 0
-20 -25 0
-20 -26 0
-20 -27 0
-20 -28 0
-21 -25 0
-21 -26 0
-21 -27 0
-21 -28 0
-22 -25 0
-22 -26 0
-22 -27 0
-22 -28 0
-23 -25 0
-23 -26 0
-23 -27 0
-23 -28 0
-24 -25 0
-24 -26 0
-24 -27 0
-24 -28 0
-1 -5 0
-1 -9 0
-1 -13 0
-1 -17 0
-1 -21 0
-1 -25 0
-5 -9 0
-5 -13 0
-5 -17 0
-5 -21 0
-5 -25 0
-9 -13 0
-9 -17 0
-9 -21 0
-9 -25 0
-13 -17 0
-13 -21 0
-13 -25 0
-17 -21 0
-17 -25 0
-21 -25 0
1 5 9 13 17 21 25 0
-2 -6 0
-2 -10 0
-2 -14 0
-2 -18 0
-2 -22 0
-2 -26 0
-6 -10 0
-6 -14 0
-6 -18 0
-6 -22 0
-6 -26 0
-10 -14 0
-10 -18 0
-10 -22 0
-10 -26 0
-14 -18 0
-14 -22 0
-14 -26 0
-18 -22 0
-18 -26 0
-22 -26 0
2 6 10 14 18 22 26 0
-3 -7 0
-3 -11 0
-3 -15 0
-3 -19 0
-3 -23 0
-3 -27 0
-7 -11 0
-7 -15 0
-7 -19 0
-7 -23 0
-7 -27 0
-11 -15 0
-11 -19 0
-11 -23 0
-11 -27 0
-15 -19 0
-15 -23 0
-15 -27 0
-19 -23 0
-19 -27 0
-23 -27 0
3 7 11 15 19 23 27 0
-4 -8 0
-4 -12 0
-4 -16 0
-4 -20 0
-4 -24 0
-4 -28 0
-8 -12 0
-8 -16 0
-8 -20 0
-8 -24 0
-8 -28 0
-12 -16 0
-12 -20 0
-12 -24 0
-12 -28 0
-16 -20 0
-16 -24 0
-16 -28 0
-20 -24 0
-20 -28 0
-24 -28 0
4 8 12 16 20 24 28 0
-1 -2 0
-1 -3 0
-1 -4 0
-2 -3 0
-2 -4 0
-3 -4 0
-5 -6 0
-5 -7 0
-5 -8 0
-6 -7 0
-6 -8 0
-7 -8 0
-9 -10 0
-9 -11 0
-9 -12 0
-10 -11 0
-10 -12 0
-11 -12 0
-13 -14 0
-13 -15 0
-13 -16 0
-14 -15 0
-14 -16 0
-15 -16 0
-17 -18 0
-17 -19 0
-17 -20 0
-18 -19 0
-18 -20 0
-19 -20 0
-21 -22 0
-21 -23 0
-21 -24 0
-22 -23 0
-22 -24 0
-23 -24 0
-25 -26 0
-25 -27 0
-25 -28 0
-26 -27 0
-26 -28 0
-27 -28 0
